p cnf 0 0
c K couleurs
16 20 24 28 32 36 40 44 48 52 56 60 64 68 72 76 0
17 21 25 29 33 37 41 45 49 53 57 61 65 69 73 77 0
18 22 26 30 34 38 42 46 50 54 58 62 66 70 74 78 0
19 23 27 31 35 39 43 47 51 55 59 63 67 71 75 79 0
1 0
-17 0
-18 0
-19 0
-22 0
-23 0
-27 0
c 1 color par vertex et au plus 1
16 17 18 19 0
-17 -16 0
-18 -16 0
-19 -16 0
-18 -17 0
-19 -17 0
-19 -18 0
20 21 22 23 0
-21 -20 0
-22 -20 0
-23 -20 0
-22 -21 0
-23 -21 0
-23 -22 0
24 25 26 27 0
-25 -24 0
-26 -24 0
-27 -24 0
-26 -25 0
-27 -25 0
-27 -26 0
28 29 30 31 0
-29 -28 0
-30 -28 0
-31 -28 0
-30 -29 0
-31 -29 0
-31 -30 0
32 33 34 35 0
-33 -32 0
-34 -32 0
-35 -32 0
-34 -33 0
-35 -33 0
-35 -34 0
36 37 38 39 0
-37 -36 0
-38 -36 0
-39 -36 0
-38 -37 0
-39 -37 0
-39 -38 0
40 41 42 43 0
-41 -40 0
-42 -40 0
-43 -40 0
-42 -41 0
-43 -41 0
-43 -42 0
44 45 46 47 0
-45 -44 0
-46 -44 0
-47 -44 0
-46 -45 0
-47 -45 0
-47 -46 0
48 49 50 51 0
-49 -48 0
-50 -48 0
-51 -48 0
-50 -49 0
-51 -49 0
-51 -50 0
52 53 54 55 0
-53 -52 0
-54 -52 0
-55 -52 0
-54 -53 0
-55 -53 0
-55 -54 0
56 57 58 59 0
-57 -56 0
-58 -56 0
-59 -56 0
-58 -57 0
-59 -57 0
-59 -58 0
60 61 62 63 0
-61 -60 0
-62 -60 0
-63 -60 0
-62 -61 0
-63 -61 0
-63 -62 0
64 65 66 67 0
-65 -64 0
-66 -64 0
-67 -64 0
-66 -65 0
-67 -65 0
-67 -66 0
68 69 70 71 0
-69 -68 0
-70 -68 0
-71 -68 0
-70 -69 0
-71 -69 0
-71 -70 0
72 73 74 75 0
-73 -72 0
-74 -72 0
-75 -72 0
-74 -73 0
-75 -73 0
-75 -74 0
76 77 78 79 0
-77 -76 0
-78 -76 0
-79 -76 0
-78 -77 0
-79 -77 0
-79 -78 0
c gc coresp to G
-16 -21 80 0
-16 -21 -81 1 0
-16 -21 81 -1 0
-16 -22 82 0
-16 -22 -83 1 0
-16 -22 83 -1 0
-16 -23 84 0
-16 -23 -85 1 0
-16 -23 85 -1 0
-17 -20 80 0
-17 -20 -81 1 0
-17 -20 81 -1 0
-17 -22 86 0
-17 -22 -87 1 0
-17 -22 87 -1 0
-17 -23 88 0
-17 -23 -89 1 0
-17 -23 89 -1 0
-18 -20 82 0
-18 -20 -83 1 0
-18 -20 83 -1 0
-18 -21 86 0
-18 -21 -87 1 0
-18 -21 87 -1 0
-18 -23 90 0
-18 -23 -91 1 0
-18 -23 91 -1 0
-19 -20 84 0
-19 -20 -85 1 0
-19 -20 85 -1 0
-19 -21 88 0
-19 -21 -89 1 0
-19 -21 89 -1 0
-19 -22 90 0
-19 -22 -91 1 0
-19 -22 91 -1 0
-20 -25 80 0
-20 -25 -81 2 0
-20 -25 81 -2 0
-20 -26 82 0
-20 -26 -83 2 0
-20 -26 83 -2 0
-20 -27 84 0
-20 -27 -85 2 0
-20 -27 85 -2 0
-21 -24 80 0
-21 -24 -81 2 0
-21 -24 81 -2 0
-21 -26 86 0
-21 -26 -87 2 0
-21 -26 87 -2 0
-21 -27 88 0
-21 -27 -89 2 0
-21 -27 89 -2 0
-22 -24 82 0
-22 -24 -83 2 0
-22 -24 83 -2 0
-22 -25 86 0
-22 -25 -87 2 0
-22 -25 87 -2 0
-22 -27 90 0
-22 -27 -91 2 0
-22 -27 91 -2 0
-23 -24 84 0
-23 -24 -85 2 0
-23 -24 85 -2 0
-23 -25 88 0
-23 -25 -89 2 0
-23 -25 89 -2 0
-23 -26 90 0
-23 -26 -91 2 0
-23 -26 91 -2 0
-24 -29 80 0
-24 -29 -81 3 0
-24 -29 81 -3 0
-24 -30 82 0
-24 -30 -83 3 0
-24 -30 83 -3 0
-24 -31 84 0
-24 -31 -85 3 0
-24 -31 85 -3 0
-25 -28 80 0
-25 -28 -81 3 0
-25 -28 81 -3 0
-25 -30 86 0
-25 -30 -87 3 0
-25 -30 87 -3 0
-25 -31 88 0
-25 -31 -89 3 0
-25 -31 89 -3 0
-26 -28 82 0
-26 -28 -83 3 0
-26 -28 83 -3 0
-26 -29 86 0
-26 -29 -87 3 0
-26 -29 87 -3 0
-26 -31 90 0
-26 -31 -91 3 0
-26 -31 91 -3 0
-27 -28 84 0
-27 -28 -85 3 0
-27 -28 85 -3 0
-27 -29 88 0
-27 -29 -89 3 0
-27 -29 89 -3 0
-27 -30 90 0
-27 -30 -91 3 0
-27 -30 91 -3 0
-28 -33 80 0
-28 -33 -81 4 0
-28 -33 81 -4 0
-28 -34 82 0
-28 -34 -83 4 0
-28 -34 83 -4 0
-28 -35 84 0
-28 -35 -85 4 0
-28 -35 85 -4 0
-29 -32 80 0
-29 -32 -81 4 0
-29 -32 81 -4 0
-29 -34 86 0
-29 -34 -87 4 0
-29 -34 87 -4 0
-29 -35 88 0
-29 -35 -89 4 0
-29 -35 89 -4 0
-30 -32 82 0
-30 -32 -83 4 0
-30 -32 83 -4 0
-30 -33 86 0
-30 -33 -87 4 0
-30 -33 87 -4 0
-30 -35 90 0
-30 -35 -91 4 0
-30 -35 91 -4 0
-31 -32 84 0
-31 -32 -85 4 0
-31 -32 85 -4 0
-31 -33 88 0
-31 -33 -89 4 0
-31 -33 89 -4 0
-31 -34 90 0
-31 -34 -91 4 0
-31 -34 91 -4 0
-32 -37 80 0
-32 -37 -81 5 0
-32 -37 81 -5 0
-32 -38 82 0
-32 -38 -83 5 0
-32 -38 83 -5 0
-32 -39 84 0
-32 -39 -85 5 0
-32 -39 85 -5 0
-33 -36 80 0
-33 -36 -81 5 0
-33 -36 81 -5 0
-33 -38 86 0
-33 -38 -87 5 0
-33 -38 87 -5 0
-33 -39 88 0
-33 -39 -89 5 0
-33 -39 89 -5 0
-34 -36 82 0
-34 -36 -83 5 0
-34 -36 83 -5 0
-34 -37 86 0
-34 -37 -87 5 0
-34 -37 87 -5 0
-34 -39 90 0
-34 -39 -91 5 0
-34 -39 91 -5 0
-35 -36 84 0
-35 -36 -85 5 0
-35 -36 85 -5 0
-35 -37 88 0
-35 -37 -89 5 0
-35 -37 89 -5 0
-35 -38 90 0
-35 -38 -91 5 0
-35 -38 91 -5 0
-36 -41 80 0
-36 -41 -81 6 0
-36 -41 81 -6 0
-36 -42 82 0
-36 -42 -83 6 0
-36 -42 83 -6 0
-36 -43 84 0
-36 -43 -85 6 0
-36 -43 85 -6 0
-37 -40 80 0
-37 -40 -81 6 0
-37 -40 81 -6 0
-37 -42 86 0
-37 -42 -87 6 0
-37 -42 87 -6 0
-37 -43 88 0
-37 -43 -89 6 0
-37 -43 89 -6 0
-38 -40 82 0
-38 -40 -83 6 0
-38 -40 83 -6 0
-38 -41 86 0
-38 -41 -87 6 0
-38 -41 87 -6 0
-38 -43 90 0
-38 -43 -91 6 0
-38 -43 91 -6 0
-39 -40 84 0
-39 -40 -85 6 0
-39 -40 85 -6 0
-39 -41 88 0
-39 -41 -89 6 0
-39 -41 89 -6 0
-39 -42 90 0
-39 -42 -91 6 0
-39 -42 91 -6 0
-40 -45 80 0
-40 -45 -81 7 0
-40 -45 81 -7 0
-40 -46 82 0
-40 -46 -83 7 0
-40 -46 83 -7 0
-40 -47 84 0
-40 -47 -85 7 0
-40 -47 85 -7 0
-41 -44 80 0
-41 -44 -81 7 0
-41 -44 81 -7 0
-41 -46 86 0
-41 -46 -87 7 0
-41 -46 87 -7 0
-41 -47 88 0
-41 -47 -89 7 0
-41 -47 89 -7 0
-42 -44 82 0
-42 -44 -83 7 0
-42 -44 83 -7 0
-42 -45 86 0
-42 -45 -87 7 0
-42 -45 87 -7 0
-42 -47 90 0
-42 -47 -91 7 0
-42 -47 91 -7 0
-43 -44 84 0
-43 -44 -85 7 0
-43 -44 85 -7 0
-43 -45 88 0
-43 -45 -89 7 0
-43 -45 89 -7 0
-43 -46 90 0
-43 -46 -91 7 0
-43 -46 91 -7 0
-44 -49 80 0
-44 -49 -81 8 0
-44 -49 81 -8 0
-44 -50 82 0
-44 -50 -83 8 0
-44 -50 83 -8 0
-44 -51 84 0
-44 -51 -85 8 0
-44 -51 85 -8 0
-45 -48 80 0
-45 -48 -81 8 0
-45 -48 81 -8 0
-45 -50 86 0
-45 -50 -87 8 0
-45 -50 87 -8 0
-45 -51 88 0
-45 -51 -89 8 0
-45 -51 89 -8 0
-46 -48 82 0
-46 -48 -83 8 0
-46 -48 83 -8 0
-46 -49 86 0
-46 -49 -87 8 0
-46 -49 87 -8 0
-46 -51 90 0
-46 -51 -91 8 0
-46 -51 91 -8 0
-47 -48 84 0
-47 -48 -85 8 0
-47 -48 85 -8 0
-47 -49 88 0
-47 -49 -89 8 0
-47 -49 89 -8 0
-47 -50 90 0
-47 -50 -91 8 0
-47 -50 91 -8 0
-48 -53 80 0
-48 -53 -81 9 0
-48 -53 81 -9 0
-48 -54 82 0
-48 -54 -83 9 0
-48 -54 83 -9 0
-48 -55 84 0
-48 -55 -85 9 0
-48 -55 85 -9 0
-49 -52 80 0
-49 -52 -81 9 0
-49 -52 81 -9 0
-49 -54 86 0
-49 -54 -87 9 0
-49 -54 87 -9 0
-49 -55 88 0
-49 -55 -89 9 0
-49 -55 89 -9 0
-50 -52 82 0
-50 -52 -83 9 0
-50 -52 83 -9 0
-50 -53 86 0
-50 -53 -87 9 0
-50 -53 87 -9 0
-50 -55 90 0
-50 -55 -91 9 0
-50 -55 91 -9 0
-51 -52 84 0
-51 -52 -85 9 0
-51 -52 85 -9 0
-51 -53 88 0
-51 -53 -89 9 0
-51 -53 89 -9 0
-51 -54 90 0
-51 -54 -91 9 0
-51 -54 91 -9 0
-52 -57 80 0
-52 -57 -81 10 0
-52 -57 81 -10 0
-52 -58 82 0
-52 -58 -83 10 0
-52 -58 83 -10 0
-52 -59 84 0
-52 -59 -85 10 0
-52 -59 85 -10 0
-53 -56 80 0
-53 -56 -81 10 0
-53 -56 81 -10 0
-53 -58 86 0
-53 -58 -87 10 0
-53 -58 87 -10 0
-53 -59 88 0
-53 -59 -89 10 0
-53 -59 89 -10 0
-54 -56 82 0
-54 -56 -83 10 0
-54 -56 83 -10 0
-54 -57 86 0
-54 -57 -87 10 0
-54 -57 87 -10 0
-54 -59 90 0
-54 -59 -91 10 0
-54 -59 91 -10 0
-55 -56 84 0
-55 -56 -85 10 0
-55 -56 85 -10 0
-55 -57 88 0
-55 -57 -89 10 0
-55 -57 89 -10 0
-55 -58 90 0
-55 -58 -91 10 0
-55 -58 91 -10 0
-56 -61 80 0
-56 -61 -81 11 0
-56 -61 81 -11 0
-56 -62 82 0
-56 -62 -83 11 0
-56 -62 83 -11 0
-56 -63 84 0
-56 -63 -85 11 0
-56 -63 85 -11 0
-57 -60 80 0
-57 -60 -81 11 0
-57 -60 81 -11 0
-57 -62 86 0
-57 -62 -87 11 0
-57 -62 87 -11 0
-57 -63 88 0
-57 -63 -89 11 0
-57 -63 89 -11 0
-58 -60 82 0
-58 -60 -83 11 0
-58 -60 83 -11 0
-58 -61 86 0
-58 -61 -87 11 0
-58 -61 87 -11 0
-58 -63 90 0
-58 -63 -91 11 0
-58 -63 91 -11 0
-59 -60 84 0
-59 -60 -85 11 0
-59 -60 85 -11 0
-59 -61 88 0
-59 -61 -89 11 0
-59 -61 89 -11 0
-59 -62 90 0
-59 -62 -91 11 0
-59 -62 91 -11 0
-60 -65 80 0
-60 -65 -81 12 0
-60 -65 81 -12 0
-60 -66 82 0
-60 -66 -83 12 0
-60 -66 83 -12 0
-60 -67 84 0
-60 -67 -85 12 0
-60 -67 85 -12 0
-61 -64 80 0
-61 -64 -81 12 0
-61 -64 81 -12 0
-61 -66 86 0
-61 -66 -87 12 0
-61 -66 87 -12 0
-61 -67 88 0
-61 -67 -89 12 0
-61 -67 89 -12 0
-62 -64 82 0
-62 -64 -83 12 0
-62 -64 83 -12 0
-62 -65 86 0
-62 -65 -87 12 0
-62 -65 87 -12 0
-62 -67 90 0
-62 -67 -91 12 0
-62 -67 91 -12 0
-63 -64 84 0
-63 -64 -85 12 0
-63 -64 85 -12 0
-63 -65 88 0
-63 -65 -89 12 0
-63 -65 89 -12 0
-63 -66 90 0
-63 -66 -91 12 0
-63 -66 91 -12 0
-64 -69 80 0
-64 -69 -81 13 0
-64 -69 81 -13 0
-64 -70 82 0
-64 -70 -83 13 0
-64 -70 83 -13 0
-64 -71 84 0
-64 -71 -85 13 0
-64 -71 85 -13 0
-65 -68 80 0
-65 -68 -81 13 0
-65 -68 81 -13 0
-65 -70 86 0
-65 -70 -87 13 0
-65 -70 87 -13 0
-65 -71 88 0
-65 -71 -89 13 0
-65 -71 89 -13 0
-66 -68 82 0
-66 -68 -83 13 0
-66 -68 83 -13 0
-66 -69 86 0
-66 -69 -87 13 0
-66 -69 87 -13 0
-66 -71 90 0
-66 -71 -91 13 0
-66 -71 91 -13 0
-67 -68 84 0
-67 -68 -85 13 0
-67 -68 85 -13 0
-67 -69 88 0
-67 -69 -89 13 0
-67 -69 89 -13 0
-67 -70 90 0
-67 -70 -91 13 0
-67 -70 91 -13 0
-68 -73 80 0
-68 -73 -81 14 0
-68 -73 81 -14 0
-68 -74 82 0
-68 -74 -83 14 0
-68 -74 83 -14 0
-68 -75 84 0
-68 -75 -85 14 0
-68 -75 85 -14 0
-69 -72 80 0
-69 -72 -81 14 0
-69 -72 81 -14 0
-69 -74 86 0
-69 -74 -87 14 0
-69 -74 87 -14 0
-69 -75 88 0
-69 -75 -89 14 0
-69 -75 89 -14 0
-70 -72 82 0
-70 -72 -83 14 0
-70 -72 83 -14 0
-70 -73 86 0
-70 -73 -87 14 0
-70 -73 87 -14 0
-70 -75 90 0
-70 -75 -91 14 0
-70 -75 91 -14 0
-71 -72 84 0
-71 -72 -85 14 0
-71 -72 85 -14 0
-71 -73 88 0
-71 -73 -89 14 0
-71 -73 89 -14 0
-71 -74 90 0
-71 -74 -91 14 0
-71 -74 91 -14 0
-72 -77 80 0
-72 -77 -81 15 0
-72 -77 81 -15 0
-72 -78 82 0
-72 -78 -83 15 0
-72 -78 83 -15 0
-72 -79 84 0
-72 -79 -85 15 0
-72 -79 85 -15 0
-73 -76 80 0
-73 -76 -81 15 0
-73 -76 81 -15 0
-73 -78 86 0
-73 -78 -87 15 0
-73 -78 87 -15 0
-73 -79 88 0
-73 -79 -89 15 0
-73 -79 89 -15 0
-74 -76 82 0
-74 -76 -83 15 0
-74 -76 83 -15 0
-74 -77 86 0
-74 -77 -87 15 0
-74 -77 87 -15 0
-74 -79 90 0
-74 -79 -91 15 0
-74 -79 91 -15 0
-75 -76 84 0
-75 -76 -85 15 0
-75 -76 85 -15 0
-75 -77 88 0
-75 -77 -89 15 0
-75 -77 89 -15 0
-75 -78 90 0
-75 -78 -91 15 0
-75 -78 91 -15 0
c X
-93 16 0
-92 16 0
-93 21 0
-92 21 0
-93 1 0
-92 -1 0
93 -16 -21 -1 0
92 -16 -21 1 0
-95 16 0
-94 16 0
-95 22 0
-94 22 0
-95 1 0
-94 -1 0
95 -16 -22 -1 0
94 -16 -22 1 0
-97 16 0
-96 16 0
-97 23 0
-96 23 0
-97 1 0
-96 -1 0
97 -16 -23 -1 0
96 -16 -23 1 0
-99 17 0
-98 17 0
-99 20 0
-98 20 0
-99 1 0
-98 -1 0
99 -17 -20 -1 0
98 -17 -20 1 0
-101 17 0
-100 17 0
-101 22 0
-100 22 0
-101 1 0
-100 -1 0
101 -17 -22 -1 0
100 -17 -22 1 0
-103 17 0
-102 17 0
-103 23 0
-102 23 0
-103 1 0
-102 -1 0
103 -17 -23 -1 0
102 -17 -23 1 0
-105 18 0
-104 18 0
-105 20 0
-104 20 0
-105 1 0
-104 -1 0
105 -18 -20 -1 0
104 -18 -20 1 0
-107 18 0
-106 18 0
-107 21 0
-106 21 0
-107 1 0
-106 -1 0
107 -18 -21 -1 0
106 -18 -21 1 0
-109 18 0
-108 18 0
-109 23 0
-108 23 0
-109 1 0
-108 -1 0
109 -18 -23 -1 0
108 -18 -23 1 0
-111 19 0
-110 19 0
-111 20 0
-110 20 0
-111 1 0
-110 -1 0
111 -19 -20 -1 0
110 -19 -20 1 0
-113 19 0
-112 19 0
-113 21 0
-112 21 0
-113 1 0
-112 -1 0
113 -19 -21 -1 0
112 -19 -21 1 0
-115 19 0
-114 19 0
-115 22 0
-114 22 0
-115 1 0
-114 -1 0
115 -19 -22 -1 0
114 -19 -22 1 0
-117 20 0
-116 20 0
-117 25 0
-116 25 0
-117 2 0
-116 -2 0
117 -20 -25 -2 0
116 -20 -25 2 0
-119 20 0
-118 20 0
-119 26 0
-118 26 0
-119 2 0
-118 -2 0
119 -20 -26 -2 0
118 -20 -26 2 0
-121 20 0
-120 20 0
-121 27 0
-120 27 0
-121 2 0
-120 -2 0
121 -20 -27 -2 0
120 -20 -27 2 0
-123 21 0
-122 21 0
-123 24 0
-122 24 0
-123 2 0
-122 -2 0
123 -21 -24 -2 0
122 -21 -24 2 0
-125 21 0
-124 21 0
-125 26 0
-124 26 0
-125 2 0
-124 -2 0
125 -21 -26 -2 0
124 -21 -26 2 0
-127 21 0
-126 21 0
-127 27 0
-126 27 0
-127 2 0
-126 -2 0
127 -21 -27 -2 0
126 -21 -27 2 0
-129 22 0
-128 22 0
-129 24 0
-128 24 0
-129 2 0
-128 -2 0
129 -22 -24 -2 0
128 -22 -24 2 0
-131 22 0
-130 22 0
-131 25 0
-130 25 0
-131 2 0
-130 -2 0
131 -22 -25 -2 0
130 -22 -25 2 0
-133 22 0
-132 22 0
-133 27 0
-132 27 0
-133 2 0
-132 -2 0
133 -22 -27 -2 0
132 -22 -27 2 0
-135 23 0
-134 23 0
-135 24 0
-134 24 0
-135 2 0
-134 -2 0
135 -23 -24 -2 0
134 -23 -24 2 0
-137 23 0
-136 23 0
-137 25 0
-136 25 0
-137 2 0
-136 -2 0
137 -23 -25 -2 0
136 -23 -25 2 0
-139 23 0
-138 23 0
-139 26 0
-138 26 0
-139 2 0
-138 -2 0
139 -23 -26 -2 0
138 -23 -26 2 0
-141 24 0
-140 24 0
-141 29 0
-140 29 0
-141 3 0
-140 -3 0
141 -24 -29 -3 0
140 -24 -29 3 0
-143 24 0
-142 24 0
-143 30 0
-142 30 0
-143 3 0
-142 -3 0
143 -24 -30 -3 0
142 -24 -30 3 0
-145 24 0
-144 24 0
-145 31 0
-144 31 0
-145 3 0
-144 -3 0
145 -24 -31 -3 0
144 -24 -31 3 0
-147 25 0
-146 25 0
-147 28 0
-146 28 0
-147 3 0
-146 -3 0
147 -25 -28 -3 0
146 -25 -28 3 0
-149 25 0
-148 25 0
-149 30 0
-148 30 0
-149 3 0
-148 -3 0
149 -25 -30 -3 0
148 -25 -30 3 0
-151 25 0
-150 25 0
-151 31 0
-150 31 0
-151 3 0
-150 -3 0
151 -25 -31 -3 0
150 -25 -31 3 0
-153 26 0
-152 26 0
-153 28 0
-152 28 0
-153 3 0
-152 -3 0
153 -26 -28 -3 0
152 -26 -28 3 0
-155 26 0
-154 26 0
-155 29 0
-154 29 0
-155 3 0
-154 -3 0
155 -26 -29 -3 0
154 -26 -29 3 0
-157 26 0
-156 26 0
-157 31 0
-156 31 0
-157 3 0
-156 -3 0
157 -26 -31 -3 0
156 -26 -31 3 0
-159 27 0
-158 27 0
-159 28 0
-158 28 0
-159 3 0
-158 -3 0
159 -27 -28 -3 0
158 -27 -28 3 0
-161 27 0
-160 27 0
-161 29 0
-160 29 0
-161 3 0
-160 -3 0
161 -27 -29 -3 0
160 -27 -29 3 0
-163 27 0
-162 27 0
-163 30 0
-162 30 0
-163 3 0
-162 -3 0
163 -27 -30 -3 0
162 -27 -30 3 0
-165 28 0
-164 28 0
-165 33 0
-164 33 0
-165 4 0
-164 -4 0
165 -28 -33 -4 0
164 -28 -33 4 0
-167 28 0
-166 28 0
-167 34 0
-166 34 0
-167 4 0
-166 -4 0
167 -28 -34 -4 0
166 -28 -34 4 0
-169 28 0
-168 28 0
-169 35 0
-168 35 0
-169 4 0
-168 -4 0
169 -28 -35 -4 0
168 -28 -35 4 0
-171 29 0
-170 29 0
-171 32 0
-170 32 0
-171 4 0
-170 -4 0
171 -29 -32 -4 0
170 -29 -32 4 0
-173 29 0
-172 29 0
-173 34 0
-172 34 0
-173 4 0
-172 -4 0
173 -29 -34 -4 0
172 -29 -34 4 0
-175 29 0
-174 29 0
-175 35 0
-174 35 0
-175 4 0
-174 -4 0
175 -29 -35 -4 0
174 -29 -35 4 0
-177 30 0
-176 30 0
-177 32 0
-176 32 0
-177 4 0
-176 -4 0
177 -30 -32 -4 0
176 -30 -32 4 0
-179 30 0
-178 30 0
-179 33 0
-178 33 0
-179 4 0
-178 -4 0
179 -30 -33 -4 0
178 -30 -33 4 0
-181 30 0
-180 30 0
-181 35 0
-180 35 0
-181 4 0
-180 -4 0
181 -30 -35 -4 0
180 -30 -35 4 0
-183 31 0
-182 31 0
-183 32 0
-182 32 0
-183 4 0
-182 -4 0
183 -31 -32 -4 0
182 -31 -32 4 0
-185 31 0
-184 31 0
-185 33 0
-184 33 0
-185 4 0
-184 -4 0
185 -31 -33 -4 0
184 -31 -33 4 0
-187 31 0
-186 31 0
-187 34 0
-186 34 0
-187 4 0
-186 -4 0
187 -31 -34 -4 0
186 -31 -34 4 0
-189 32 0
-188 32 0
-189 37 0
-188 37 0
-189 5 0
-188 -5 0
189 -32 -37 -5 0
188 -32 -37 5 0
-191 32 0
-190 32 0
-191 38 0
-190 38 0
-191 5 0
-190 -5 0
191 -32 -38 -5 0
190 -32 -38 5 0
-193 32 0
-192 32 0
-193 39 0
-192 39 0
-193 5 0
-192 -5 0
193 -32 -39 -5 0
192 -32 -39 5 0
-195 33 0
-194 33 0
-195 36 0
-194 36 0
-195 5 0
-194 -5 0
195 -33 -36 -5 0
194 -33 -36 5 0
-197 33 0
-196 33 0
-197 38 0
-196 38 0
-197 5 0
-196 -5 0
197 -33 -38 -5 0
196 -33 -38 5 0
-199 33 0
-198 33 0
-199 39 0
-198 39 0
-199 5 0
-198 -5 0
199 -33 -39 -5 0
198 -33 -39 5 0
-201 34 0
-200 34 0
-201 36 0
-200 36 0
-201 5 0
-200 -5 0
201 -34 -36 -5 0
200 -34 -36 5 0
-203 34 0
-202 34 0
-203 37 0
-202 37 0
-203 5 0
-202 -5 0
203 -34 -37 -5 0
202 -34 -37 5 0
-205 34 0
-204 34 0
-205 39 0
-204 39 0
-205 5 0
-204 -5 0
205 -34 -39 -5 0
204 -34 -39 5 0
-207 35 0
-206 35 0
-207 36 0
-206 36 0
-207 5 0
-206 -5 0
207 -35 -36 -5 0
206 -35 -36 5 0
-209 35 0
-208 35 0
-209 37 0
-208 37 0
-209 5 0
-208 -5 0
209 -35 -37 -5 0
208 -35 -37 5 0
-211 35 0
-210 35 0
-211 38 0
-210 38 0
-211 5 0
-210 -5 0
211 -35 -38 -5 0
210 -35 -38 5 0
-213 36 0
-212 36 0
-213 41 0
-212 41 0
-213 6 0
-212 -6 0
213 -36 -41 -6 0
212 -36 -41 6 0
-215 36 0
-214 36 0
-215 42 0
-214 42 0
-215 6 0
-214 -6 0
215 -36 -42 -6 0
214 -36 -42 6 0
-217 36 0
-216 36 0
-217 43 0
-216 43 0
-217 6 0
-216 -6 0
217 -36 -43 -6 0
216 -36 -43 6 0
-219 37 0
-218 37 0
-219 40 0
-218 40 0
-219 6 0
-218 -6 0
219 -37 -40 -6 0
218 -37 -40 6 0
-221 37 0
-220 37 0
-221 42 0
-220 42 0
-221 6 0
-220 -6 0
221 -37 -42 -6 0
220 -37 -42 6 0
-223 37 0
-222 37 0
-223 43 0
-222 43 0
-223 6 0
-222 -6 0
223 -37 -43 -6 0
222 -37 -43 6 0
-225 38 0
-224 38 0
-225 40 0
-224 40 0
-225 6 0
-224 -6 0
225 -38 -40 -6 0
224 -38 -40 6 0
-227 38 0
-226 38 0
-227 41 0
-226 41 0
-227 6 0
-226 -6 0
227 -38 -41 -6 0
226 -38 -41 6 0
-229 38 0
-228 38 0
-229 43 0
-228 43 0
-229 6 0
-228 -6 0
229 -38 -43 -6 0
228 -38 -43 6 0
-231 39 0
-230 39 0
-231 40 0
-230 40 0
-231 6 0
-230 -6 0
231 -39 -40 -6 0
230 -39 -40 6 0
-233 39 0
-232 39 0
-233 41 0
-232 41 0
-233 6 0
-232 -6 0
233 -39 -41 -6 0
232 -39 -41 6 0
-235 39 0
-234 39 0
-235 42 0
-234 42 0
-235 6 0
-234 -6 0
235 -39 -42 -6 0
234 -39 -42 6 0
-237 40 0
-236 40 0
-237 45 0
-236 45 0
-237 7 0
-236 -7 0
237 -40 -45 -7 0
236 -40 -45 7 0
-239 40 0
-238 40 0
-239 46 0
-238 46 0
-239 7 0
-238 -7 0
239 -40 -46 -7 0
238 -40 -46 7 0
-241 40 0
-240 40 0
-241 47 0
-240 47 0
-241 7 0
-240 -7 0
241 -40 -47 -7 0
240 -40 -47 7 0
-243 41 0
-242 41 0
-243 44 0
-242 44 0
-243 7 0
-242 -7 0
243 -41 -44 -7 0
242 -41 -44 7 0
-245 41 0
-244 41 0
-245 46 0
-244 46 0
-245 7 0
-244 -7 0
245 -41 -46 -7 0
244 -41 -46 7 0
-247 41 0
-246 41 0
-247 47 0
-246 47 0
-247 7 0
-246 -7 0
247 -41 -47 -7 0
246 -41 -47 7 0
-249 42 0
-248 42 0
-249 44 0
-248 44 0
-249 7 0
-248 -7 0
249 -42 -44 -7 0
248 -42 -44 7 0
-251 42 0
-250 42 0
-251 45 0
-250 45 0
-251 7 0
-250 -7 0
251 -42 -45 -7 0
250 -42 -45 7 0
-253 42 0
-252 42 0
-253 47 0
-252 47 0
-253 7 0
-252 -7 0
253 -42 -47 -7 0
252 -42 -47 7 0
-255 43 0
-254 43 0
-255 44 0
-254 44 0
-255 7 0
-254 -7 0
255 -43 -44 -7 0
254 -43 -44 7 0
-257 43 0
-256 43 0
-257 45 0
-256 45 0
-257 7 0
-256 -7 0
257 -43 -45 -7 0
256 -43 -45 7 0
-259 43 0
-258 43 0
-259 46 0
-258 46 0
-259 7 0
-258 -7 0
259 -43 -46 -7 0
258 -43 -46 7 0
-261 44 0
-260 44 0
-261 49 0
-260 49 0
-261 8 0
-260 -8 0
261 -44 -49 -8 0
260 -44 -49 8 0
-263 44 0
-262 44 0
-263 50 0
-262 50 0
-263 8 0
-262 -8 0
263 -44 -50 -8 0
262 -44 -50 8 0
-265 44 0
-264 44 0
-265 51 0
-264 51 0
-265 8 0
-264 -8 0
265 -44 -51 -8 0
264 -44 -51 8 0
-267 45 0
-266 45 0
-267 48 0
-266 48 0
-267 8 0
-266 -8 0
267 -45 -48 -8 0
266 -45 -48 8 0
-269 45 0
-268 45 0
-269 50 0
-268 50 0
-269 8 0
-268 -8 0
269 -45 -50 -8 0
268 -45 -50 8 0
-271 45 0
-270 45 0
-271 51 0
-270 51 0
-271 8 0
-270 -8 0
271 -45 -51 -8 0
270 -45 -51 8 0
-273 46 0
-272 46 0
-273 48 0
-272 48 0
-273 8 0
-272 -8 0
273 -46 -48 -8 0
272 -46 -48 8 0
-275 46 0
-274 46 0
-275 49 0
-274 49 0
-275 8 0
-274 -8 0
275 -46 -49 -8 0
274 -46 -49 8 0
-277 46 0
-276 46 0
-277 51 0
-276 51 0
-277 8 0
-276 -8 0
277 -46 -51 -8 0
276 -46 -51 8 0
-279 47 0
-278 47 0
-279 48 0
-278 48 0
-279 8 0
-278 -8 0
279 -47 -48 -8 0
278 -47 -48 8 0
-281 47 0
-280 47 0
-281 49 0
-280 49 0
-281 8 0
-280 -8 0
281 -47 -49 -8 0
280 -47 -49 8 0
-283 47 0
-282 47 0
-283 50 0
-282 50 0
-283 8 0
-282 -8 0
283 -47 -50 -8 0
282 -47 -50 8 0
-285 48 0
-284 48 0
-285 53 0
-284 53 0
-285 9 0
-284 -9 0
285 -48 -53 -9 0
284 -48 -53 9 0
-287 48 0
-286 48 0
-287 54 0
-286 54 0
-287 9 0
-286 -9 0
287 -48 -54 -9 0
286 -48 -54 9 0
-289 48 0
-288 48 0
-289 55 0
-288 55 0
-289 9 0
-288 -9 0
289 -48 -55 -9 0
288 -48 -55 9 0
-291 49 0
-290 49 0
-291 52 0
-290 52 0
-291 9 0
-290 -9 0
291 -49 -52 -9 0
290 -49 -52 9 0
-293 49 0
-292 49 0
-293 54 0
-292 54 0
-293 9 0
-292 -9 0
293 -49 -54 -9 0
292 -49 -54 9 0
-295 49 0
-294 49 0
-295 55 0
-294 55 0
-295 9 0
-294 -9 0
295 -49 -55 -9 0
294 -49 -55 9 0
-297 50 0
-296 50 0
-297 52 0
-296 52 0
-297 9 0
-296 -9 0
297 -50 -52 -9 0
296 -50 -52 9 0
-299 50 0
-298 50 0
-299 53 0
-298 53 0
-299 9 0
-298 -9 0
299 -50 -53 -9 0
298 -50 -53 9 0
-301 50 0
-300 50 0
-301 55 0
-300 55 0
-301 9 0
-300 -9 0
301 -50 -55 -9 0
300 -50 -55 9 0
-303 51 0
-302 51 0
-303 52 0
-302 52 0
-303 9 0
-302 -9 0
303 -51 -52 -9 0
302 -51 -52 9 0
-305 51 0
-304 51 0
-305 53 0
-304 53 0
-305 9 0
-304 -9 0
305 -51 -53 -9 0
304 -51 -53 9 0
-307 51 0
-306 51 0
-307 54 0
-306 54 0
-307 9 0
-306 -9 0
307 -51 -54 -9 0
306 -51 -54 9 0
-309 52 0
-308 52 0
-309 57 0
-308 57 0
-309 10 0
-308 -10 0
309 -52 -57 -10 0
308 -52 -57 10 0
-311 52 0
-310 52 0
-311 58 0
-310 58 0
-311 10 0
-310 -10 0
311 -52 -58 -10 0
310 -52 -58 10 0
-313 52 0
-312 52 0
-313 59 0
-312 59 0
-313 10 0
-312 -10 0
313 -52 -59 -10 0
312 -52 -59 10 0
-315 53 0
-314 53 0
-315 56 0
-314 56 0
-315 10 0
-314 -10 0
315 -53 -56 -10 0
314 -53 -56 10 0
-317 53 0
-316 53 0
-317 58 0
-316 58 0
-317 10 0
-316 -10 0
317 -53 -58 -10 0
316 -53 -58 10 0
-319 53 0
-318 53 0
-319 59 0
-318 59 0
-319 10 0
-318 -10 0
319 -53 -59 -10 0
318 -53 -59 10 0
-321 54 0
-320 54 0
-321 56 0
-320 56 0
-321 10 0
-320 -10 0
321 -54 -56 -10 0
320 -54 -56 10 0
-323 54 0
-322 54 0
-323 57 0
-322 57 0
-323 10 0
-322 -10 0
323 -54 -57 -10 0
322 -54 -57 10 0
-325 54 0
-324 54 0
-325 59 0
-324 59 0
-325 10 0
-324 -10 0
325 -54 -59 -10 0
324 -54 -59 10 0
-327 55 0
-326 55 0
-327 56 0
-326 56 0
-327 10 0
-326 -10 0
327 -55 -56 -10 0
326 -55 -56 10 0
-329 55 0
-328 55 0
-329 57 0
-328 57 0
-329 10 0
-328 -10 0
329 -55 -57 -10 0
328 -55 -57 10 0
-331 55 0
-330 55 0
-331 58 0
-330 58 0
-331 10 0
-330 -10 0
331 -55 -58 -10 0
330 -55 -58 10 0
-333 56 0
-332 56 0
-333 61 0
-332 61 0
-333 11 0
-332 -11 0
333 -56 -61 -11 0
332 -56 -61 11 0
-335 56 0
-334 56 0
-335 62 0
-334 62 0
-335 11 0
-334 -11 0
335 -56 -62 -11 0
334 -56 -62 11 0
-337 56 0
-336 56 0
-337 63 0
-336 63 0
-337 11 0
-336 -11 0
337 -56 -63 -11 0
336 -56 -63 11 0
-339 57 0
-338 57 0
-339 60 0
-338 60 0
-339 11 0
-338 -11 0
339 -57 -60 -11 0
338 -57 -60 11 0
-341 57 0
-340 57 0
-341 62 0
-340 62 0
-341 11 0
-340 -11 0
341 -57 -62 -11 0
340 -57 -62 11 0
-343 57 0
-342 57 0
-343 63 0
-342 63 0
-343 11 0
-342 -11 0
343 -57 -63 -11 0
342 -57 -63 11 0
-345 58 0
-344 58 0
-345 60 0
-344 60 0
-345 11 0
-344 -11 0
345 -58 -60 -11 0
344 -58 -60 11 0
-347 58 0
-346 58 0
-347 61 0
-346 61 0
-347 11 0
-346 -11 0
347 -58 -61 -11 0
346 -58 -61 11 0
-349 58 0
-348 58 0
-349 63 0
-348 63 0
-349 11 0
-348 -11 0
349 -58 -63 -11 0
348 -58 -63 11 0
-351 59 0
-350 59 0
-351 60 0
-350 60 0
-351 11 0
-350 -11 0
351 -59 -60 -11 0
350 -59 -60 11 0
-353 59 0
-352 59 0
-353 61 0
-352 61 0
-353 11 0
-352 -11 0
353 -59 -61 -11 0
352 -59 -61 11 0
-355 59 0
-354 59 0
-355 62 0
-354 62 0
-355 11 0
-354 -11 0
355 -59 -62 -11 0
354 -59 -62 11 0
-357 60 0
-356 60 0
-357 65 0
-356 65 0
-357 12 0
-356 -12 0
357 -60 -65 -12 0
356 -60 -65 12 0
-359 60 0
-358 60 0
-359 66 0
-358 66 0
-359 12 0
-358 -12 0
359 -60 -66 -12 0
358 -60 -66 12 0
-361 60 0
-360 60 0
-361 67 0
-360 67 0
-361 12 0
-360 -12 0
361 -60 -67 -12 0
360 -60 -67 12 0
-363 61 0
-362 61 0
-363 64 0
-362 64 0
-363 12 0
-362 -12 0
363 -61 -64 -12 0
362 -61 -64 12 0
-365 61 0
-364 61 0
-365 66 0
-364 66 0
-365 12 0
-364 -12 0
365 -61 -66 -12 0
364 -61 -66 12 0
-367 61 0
-366 61 0
-367 67 0
-366 67 0
-367 12 0
-366 -12 0
367 -61 -67 -12 0
366 -61 -67 12 0
-369 62 0
-368 62 0
-369 64 0
-368 64 0
-369 12 0
-368 -12 0
369 -62 -64 -12 0
368 -62 -64 12 0
-371 62 0
-370 62 0
-371 65 0
-370 65 0
-371 12 0
-370 -12 0
371 -62 -65 -12 0
370 -62 -65 12 0
-373 62 0
-372 62 0
-373 67 0
-372 67 0
-373 12 0
-372 -12 0
373 -62 -67 -12 0
372 -62 -67 12 0
-375 63 0
-374 63 0
-375 64 0
-374 64 0
-375 12 0
-374 -12 0
375 -63 -64 -12 0
374 -63 -64 12 0
-377 63 0
-376 63 0
-377 65 0
-376 65 0
-377 12 0
-376 -12 0
377 -63 -65 -12 0
376 -63 -65 12 0
-379 63 0
-378 63 0
-379 66 0
-378 66 0
-379 12 0
-378 -12 0
379 -63 -66 -12 0
378 -63 -66 12 0
-381 64 0
-380 64 0
-381 69 0
-380 69 0
-381 13 0
-380 -13 0
381 -64 -69 -13 0
380 -64 -69 13 0
-383 64 0
-382 64 0
-383 70 0
-382 70 0
-383 13 0
-382 -13 0
383 -64 -70 -13 0
382 -64 -70 13 0
-385 64 0
-384 64 0
-385 71 0
-384 71 0
-385 13 0
-384 -13 0
385 -64 -71 -13 0
384 -64 -71 13 0
-387 65 0
-386 65 0
-387 68 0
-386 68 0
-387 13 0
-386 -13 0
387 -65 -68 -13 0
386 -65 -68 13 0
-389 65 0
-388 65 0
-389 70 0
-388 70 0
-389 13 0
-388 -13 0
389 -65 -70 -13 0
388 -65 -70 13 0
-391 65 0
-390 65 0
-391 71 0
-390 71 0
-391 13 0
-390 -13 0
391 -65 -71 -13 0
390 -65 -71 13 0
-393 66 0
-392 66 0
-393 68 0
-392 68 0
-393 13 0
-392 -13 0
393 -66 -68 -13 0
392 -66 -68 13 0
-395 66 0
-394 66 0
-395 69 0
-394 69 0
-395 13 0
-394 -13 0
395 -66 -69 -13 0
394 -66 -69 13 0
-397 66 0
-396 66 0
-397 71 0
-396 71 0
-397 13 0
-396 -13 0
397 -66 -71 -13 0
396 -66 -71 13 0
-399 67 0
-398 67 0
-399 68 0
-398 68 0
-399 13 0
-398 -13 0
399 -67 -68 -13 0
398 -67 -68 13 0
-401 67 0
-400 67 0
-401 69 0
-400 69 0
-401 13 0
-400 -13 0
401 -67 -69 -13 0
400 -67 -69 13 0
-403 67 0
-402 67 0
-403 70 0
-402 70 0
-403 13 0
-402 -13 0
403 -67 -70 -13 0
402 -67 -70 13 0
-405 68 0
-404 68 0
-405 73 0
-404 73 0
-405 14 0
-404 -14 0
405 -68 -73 -14 0
404 -68 -73 14 0
-407 68 0
-406 68 0
-407 74 0
-406 74 0
-407 14 0
-406 -14 0
407 -68 -74 -14 0
406 -68 -74 14 0
-409 68 0
-408 68 0
-409 75 0
-408 75 0
-409 14 0
-408 -14 0
409 -68 -75 -14 0
408 -68 -75 14 0
-411 69 0
-410 69 0
-411 72 0
-410 72 0
-411 14 0
-410 -14 0
411 -69 -72 -14 0
410 -69 -72 14 0
-413 69 0
-412 69 0
-413 74 0
-412 74 0
-413 14 0
-412 -14 0
413 -69 -74 -14 0
412 -69 -74 14 0
-415 69 0
-414 69 0
-415 75 0
-414 75 0
-415 14 0
-414 -14 0
415 -69 -75 -14 0
414 -69 -75 14 0
-417 70 0
-416 70 0
-417 72 0
-416 72 0
-417 14 0
-416 -14 0
417 -70 -72 -14 0
416 -70 -72 14 0
-419 70 0
-418 70 0
-419 73 0
-418 73 0
-419 14 0
-418 -14 0
419 -70 -73 -14 0
418 -70 -73 14 0
-421 70 0
-420 70 0
-421 75 0
-420 75 0
-421 14 0
-420 -14 0
421 -70 -75 -14 0
420 -70 -75 14 0
-423 71 0
-422 71 0
-423 72 0
-422 72 0
-423 14 0
-422 -14 0
423 -71 -72 -14 0
422 -71 -72 14 0
-425 71 0
-424 71 0
-425 73 0
-424 73 0
-425 14 0
-424 -14 0
425 -71 -73 -14 0
424 -71 -73 14 0
-427 71 0
-426 71 0
-427 74 0
-426 74 0
-427 14 0
-426 -14 0
427 -71 -74 -14 0
426 -71 -74 14 0
-429 72 0
-428 72 0
-429 77 0
-428 77 0
-429 15 0
-428 -15 0
429 -72 -77 -15 0
428 -72 -77 15 0
-431 72 0
-430 72 0
-431 78 0
-430 78 0
-431 15 0
-430 -15 0
431 -72 -78 -15 0
430 -72 -78 15 0
-433 72 0
-432 72 0
-433 79 0
-432 79 0
-433 15 0
-432 -15 0
433 -72 -79 -15 0
432 -72 -79 15 0
-435 73 0
-434 73 0
-435 76 0
-434 76 0
-435 15 0
-434 -15 0
435 -73 -76 -15 0
434 -73 -76 15 0
-437 73 0
-436 73 0
-437 78 0
-436 78 0
-437 15 0
-436 -15 0
437 -73 -78 -15 0
436 -73 -78 15 0
-439 73 0
-438 73 0
-439 79 0
-438 79 0
-439 15 0
-438 -15 0
439 -73 -79 -15 0
438 -73 -79 15 0
-441 74 0
-440 74 0
-441 76 0
-440 76 0
-441 15 0
-440 -15 0
441 -74 -76 -15 0
440 -74 -76 15 0
-443 74 0
-442 74 0
-443 77 0
-442 77 0
-443 15 0
-442 -15 0
443 -74 -77 -15 0
442 -74 -77 15 0
-445 74 0
-444 74 0
-445 79 0
-444 79 0
-445 15 0
-444 -15 0
445 -74 -79 -15 0
444 -74 -79 15 0
-447 75 0
-446 75 0
-447 76 0
-446 76 0
-447 15 0
-446 -15 0
447 -75 -76 -15 0
446 -75 -76 15 0
-449 75 0
-448 75 0
-449 77 0
-448 77 0
-449 15 0
-448 -15 0
449 -75 -77 -15 0
448 -75 -77 15 0
-451 75 0
-450 75 0
-451 78 0
-450 78 0
-451 15 0
-450 -15 0
451 -75 -78 -15 0
450 -75 -78 15 0
c x suite
-80 -81 93 99 117 123 141 147 165 171 189 195 213 219 237 243 261 267 285 291 309 315 333 339 357 363 381 387 405 411 429 435 0
-82 -83 95 105 119 129 143 153 167 177 191 201 215 225 239 249 263 273 287 297 311 321 335 345 359 369 383 393 407 417 431 441 0
-84 -85 97 111 121 135 145 159 169 183 193 207 217 231 241 255 265 279 289 303 313 327 337 351 361 375 385 399 409 423 433 447 0
-86 -87 101 107 125 131 149 155 173 179 197 203 221 227 245 251 269 275 293 299 317 323 341 347 365 371 389 395 413 419 437 443 0
-88 -89 103 113 127 137 151 161 175 185 199 209 223 233 247 257 271 281 295 305 319 329 343 353 367 377 391 401 415 425 439 449 0
-90 -91 109 115 133 139 157 163 181 187 205 211 229 235 253 259 277 283 301 307 325 331 349 355 373 379 397 403 421 427 445 451 0
-80 81 92 98 116 122 140 146 164 170 188 194 212 218 236 242 260 266 284 290 308 314 332 338 356 362 380 386 404 410 428 434 0
-82 83 94 104 118 128 142 152 166 176 190 200 214 224 238 248 262 272 286 296 310 320 334 344 358 368 382 392 406 416 430 440 0
-84 85 96 110 120 134 144 158 168 182 192 206 216 230 240 254 264 278 288 302 312 326 336 350 360 374 384 398 408 422 432 446 0
-86 87 100 106 124 130 148 154 172 178 196 202 220 226 244 250 268 274 292 298 316 322 340 346 364 370 388 394 412 418 436 442 0
-88 89 102 112 126 136 150 160 174 184 198 208 222 232 246 256 270 280 294 304 318 328 342 352 366 376 390 400 414 424 438 448 0
-90 91 108 114 132 138 156 162 180 186 204 210 228 234 252 258 276 282 300 306 324 330 348 354 372 378 396 402 420 426 444 450 0
c proper colo
-16 -20 0
-17 -21 0
-18 -22 0
-19 -23 0
-20 -24 0
-21 -25 0
-22 -26 0
-23 -27 0
-24 -28 0
-25 -29 0
-26 -30 0
-27 -31 0
-28 -32 0
-29 -33 0
-30 -34 0
-31 -35 0
-32 -36 0
-33 -37 0
-34 -38 0
-35 -39 0
-36 -40 0
-37 -41 0
-38 -42 0
-39 -43 0
-40 -44 0
-41 -45 0
-42 -46 0
-43 -47 0
-44 -48 0
-45 -49 0
-46 -50 0
-47 -51 0
-48 -52 0
-49 -53 0
-50 -54 0
-51 -55 0
-52 -56 0
-53 -57 0
-54 -58 0
-55 -59 0
-56 -60 0
-57 -61 0
-58 -62 0
-59 -63 0
-60 -64 0
-61 -65 0
-62 -66 0
-63 -67 0
-64 -68 0
-65 -69 0
-66 -70 0
-67 -71 0
-68 -72 0
-69 -73 0
-70 -74 0
-71 -75 0
-72 -76 0
-73 -77 0
-74 -78 0
-75 -79 0
80 452 453 0
82 454 455 0
84 456 457 0
86 458 459 0
88 460 461 0
90 462 463 0
-452 82 0
-452 86 0
-452 83 87 0
-452 -83 -87 0
452 -82 -86 83 -87 0
452 -82 -86 -83 87 0
-453 84 0
-453 88 0
-453 85 89 0
-453 -85 -89 0
453 -84 -88 85 -89 0
453 -84 -88 -85 89 0
-454 80 0
-454 86 0
-454 81 87 0
-454 -81 -87 0
454 -80 -86 81 -87 0
454 -80 -86 -81 87 0
-455 84 0
-455 90 0
-455 85 91 0
-455 -85 -91 0
455 -84 -90 85 -91 0
455 -84 -90 -85 91 0
-456 80 0
-456 88 0
-456 81 89 0
-456 -81 -89 0
456 -80 -88 81 -89 0
456 -80 -88 -81 89 0
-457 82 0
-457 90 0
-457 83 91 0
-457 -83 -91 0
457 -82 -90 83 -91 0
457 -82 -90 -83 91 0
-458 80 0
-458 82 0
-458 81 83 0
-458 -81 -83 0
458 -80 -82 81 -83 0
458 -80 -82 -81 83 0
-459 88 0
-459 90 0
-459 89 91 0
-459 -89 -91 0
459 -88 -90 89 -91 0
459 -88 -90 -89 91 0
-460 80 0
-460 84 0
-460 81 85 0
-460 -81 -85 0
460 -80 -84 81 -85 0
460 -80 -84 -81 85 0
-461 86 0
-461 90 0
-461 87 91 0
-461 -87 -91 0
461 -86 -90 87 -91 0
461 -86 -90 -87 91 0
-462 82 0
-462 84 0
-462 83 85 0
-462 -83 -85 0
462 -82 -84 83 -85 0
462 -82 -84 -83 85 0
-463 86 0
-463 88 0
-463 87 89 0
-463 -87 -89 0
463 -86 -88 87 -89 0
463 -86 -88 -87 89 0
